
Gurobi 7.5.2 (linux64) logging started Sat Jul  7 17:17:54 2018

Changed value of parameter LogFile to result/ilp/simNo_7-n_100-m_40-s_4-minVAF_0.05-cov_10000-k_1-fn_0.25-fp_0.0001-na_0.15.ILP.gurobiSolverLog
   Prev: gurobi.log  Default: 
Changed value of parameter TimeLimit to 86400.0
   Prev: 1e+100  Min: 0.0  Max: 1e+100  Default: 1e+100
Optimize a model with 639293 rows, 10765 columns and 1940420 nonzeros
Variable types: 0 continuous, 10765 integer (10765 binary)
Coefficient statistics:
  Matrix range     [2e-04, 4e+00]
  Objective range  [1e+00, 2e+01]
  Bounds range     [1e+00, 1e+00]
  RHS range        [3e-01, 2e+00]
Found heuristic solution: objective -14849.08375
Presolve removed 128751 rows and 990 columns (presolve time = 5s) ...
Presolve removed 129714 rows and 990 columns (presolve time = 10s) ...
Presolve removed 130259 rows and 990 columns (presolve time = 19s) ...
Presolve removed 184759 rows and 1535 columns (presolve time = 21s) ...
Presolve removed 184759 rows and 1535 columns (presolve time = 25s) ...
Presolve removed 184759 rows and 1535 columns
Presolve time: 26.82s
Presolved: 454534 rows, 9230 columns, 1368469 nonzeros
Variable types: 0 continuous, 9230 integer (9230 binary)
Presolved: 9230 rows, 463764 columns, 1377699 nonzeros

Presolve removed 9230 rows and 463764 columns

Root simplex log...

Iteration    Objective       Primal Inf.    Dual Inf.      Time
       0    1.6091998e+01   0.000000e+00   7.673500e+04     32s
   13643   -3.4605022e+02   0.000000e+00   4.884379e+05     35s
   25413   -4.3488383e+02   0.000000e+00   1.895028e+06     40s
   34217   -4.5659505e+02   0.000000e+00   6.367738e+05     45s
   44953   -4.8263022e+02   0.000000e+00   1.637155e+05     50s
   54743   -4.9751484e+02   0.000000e+00   1.525852e+05     55s
   64569   -5.1999421e+02   0.000000e+00   9.695921e+05     60s
   76297   -5.4059891e+02   0.000000e+00   2.045262e+04     65s
   82390   -5.4883784e+02   0.000000e+00   0.000000e+00     69s
   82390   -5.4883784e+02   0.000000e+00   0.000000e+00     70s

Root relaxation: objective -5.488378e+02, 82390 iterations, 40.89 seconds
Total elapsed time = 70.84s
Total elapsed time = 172.02s
Total elapsed time = 225.98s
Total elapsed time = 303.84s

    Nodes    |    Current Node    |     Objective Bounds      |     Work
 Expl Unexpl |  Obj  Depth IntInf | Incumbent    BestBd   Gap | It/Node Time

     0     0 -548.83784    0 1687 -14849.084 -548.83784  96.3%     -  336s
H    0     0                    -707.4841935 -548.83784  22.4%     -  341s
H    0     0                    -678.0696807 -548.83784  19.1%     -  342s
     0     0 -552.84891    0 1673 -678.06968 -552.84891  18.5%     -  473s
H    0     0                    -661.6072271 -552.84891  16.4%     -  493s
     0     0 -553.51743    0 1652 -661.60723 -553.51743  16.3%     -  541s
     0     0 -556.18727    0 1648 -661.60723 -556.18727  15.9%     -  670s
     0     0 -556.73413    0 1640 -661.60723 -556.73413  15.9%     -  700s
     0     0 -557.37479    0 1639 -661.60723 -557.37479  15.8%     -  762s
     0     0 -557.94311    0 1638 -661.60723 -557.94311  15.7%     -  828s
     0     0 -558.32785    0 1697 -661.60723 -558.32785  15.6%     - 1015s
     0     0 -558.39254    0 1695 -661.60723 -558.39254  15.6%     - 1036s
     0     0 -558.39536    0 1695 -661.60723 -558.39536  15.6%     - 1046s
     0     0 -558.39543    0 1694 -661.60723 -558.39543  15.6%     - 1051s
     0     0 -560.58993    0 1694 -661.60723 -560.58993  15.3%     - 2738s
H    0     0                    -650.9110406 -560.58993  13.9%     - 2748s
     0     0 -560.88121    0 1695 -650.91104 -560.88121  13.8%     - 2945s
     0     0 -560.93432    0 1693 -650.91104 -560.93432  13.8%     - 3012s
     0     0 -560.94098    0 1693 -650.91104 -560.94098  13.8%     - 3033s
     0     0 -560.94556    0 1694 -650.91104 -560.94556  13.8%     - 3047s
     0     0 -561.49439    0 1719 -650.91104 -561.49439  13.7%     - 3430s
     0     0 -561.53532    0 1724 -650.91104 -561.53532  13.7%     - 3475s
     0     0 -561.60927    0 1751 -650.91104 -561.60927  13.7%     - 3505s
     0     0 -561.65853    0 1743 -650.91104 -561.65853  13.7%     - 3517s
     0     0 -561.66239    0 1743 -650.91104 -561.66239  13.7%     - 3530s
     0     0 -563.73377    0 1707 -650.91104 -563.73377  13.4%     - 5149s
H    0     0                    -642.8889007 -563.73377  12.3%     - 5171s
     0     0 -563.73377    0 1708 -642.88890 -563.73377  12.3%     - 5173s
     0     0 -564.41995    0 1689 -642.88890 -564.41995  12.2%     - 5876s
H    0     0                    -632.1927142 -564.41995  10.7%     - 5904s
     0     0 -564.50553    0 1692 -632.19271 -564.50553  10.7%     - 6130s
     0     0 -564.54084    0 1692 -632.19271 -564.54084  10.7%     - 6462s
     0     0 -564.57487    0 1710 -632.19271 -564.57487  10.7%     - 6754s
     0     0 -564.58443    0 1709 -632.19271 -564.58443  10.7%     - 6773s
     0     0 -564.58513    0 1709 -632.19271 -564.58513  10.7%     - 6784s
     0     0 -566.01275    0 1759 -632.19271 -566.01275  10.5%     - 10078s
     0     0 -566.07483    0 1694 -632.19271 -566.07483  10.5%     - 10176s
     0     0 -566.10102    0 1756 -632.19271 -566.10102  10.5%     - 10221s
     0     0 -566.10663    0 1753 -632.19271 -566.10663  10.5%     - 10234s
     0     0 -566.11173    0 1756 -632.19271 -566.11173  10.5%     - 10264s
     0     0 -566.11891    0 1743 -632.19271 -566.11891  10.5%     - 10283s
     0     0 -566.11891    0 1751 -632.19271 -566.11891  10.5%     - 10289s
     0     0 -567.96164    0 1753 -632.19271 -567.96164  10.2%     - 11400s
     0     0 -568.66269    0 1738 -632.19271 -568.66269  10.0%     - 12031s
     0     0 -568.72952    0 1748 -632.19271 -568.72952  10.0%     - 12302s
     0     0 -568.75865    0 1756 -632.19271 -568.75865  10.0%     - 12449s
     0     0 -568.77250    0 1762 -632.19271 -568.77250  10.0%     - 12531s
     0     0 -568.77549    0 2780 -632.19271 -568.77549  10.0%     - 12589s
     0     0 -568.77549    0 2780 -632.19271 -568.77549  10.0%     - 12600s
     0     0 -571.86019    0 1767 -632.19271 -571.86019  9.54%     - 20840s
H    0     0                    -630.8556909 -571.86019  9.35%     - 20872s
     0     0 -572.00608    0 2752 -630.85569 -572.00608  9.33%     - 20955s
     0     0 -572.01977    0 2743 -630.85569 -572.01977  9.33%     - 20979s
     0     0 -572.02615    0 2747 -630.85569 -572.02615  9.33%     - 20989s
     0     0 -572.02615    0 2743 -630.85569 -572.02615  9.33%     - 20993s
     0     0 -574.12428    0 2695 -630.85569 -574.12428  8.99%     - 22022s
     0     0 -574.36233    0 2705 -630.85569 -574.36233  8.96%     - 22219s
     0     0 -574.36916    0 2705 -630.85569 -574.36916  8.95%     - 22228s
     0     0 -574.37458    0 2685 -630.85569 -574.37458  8.95%     - 22239s
     0     0 -574.39616    0 2647 -630.85569 -574.39616  8.95%     - 22259s
     0     0 -574.40328    0 2633 -630.85569 -574.40328  8.95%     - 22269s
     0     0 -574.43702    0 2613 -630.85569 -574.43702  8.94%     - 22289s
     0     0 -574.44631    0 2628 -630.85569 -574.44631  8.94%     - 22299s
     0     0 -574.44631    0 2631 -630.85569 -574.44631  8.94%     - 22304s
     0     0 -576.53901    0 1774 -630.85569 -576.53901  8.61%     - 23340s
     0     0 -577.11200    0 2704 -630.85569 -577.11200  8.52%     - 23820s
     0     0 -577.12113    0 2708 -630.85569 -577.12113  8.52%     - 23834s
     0     0 -577.19769    0 2703 -630.85569 -577.19769  8.51%     - 23850s
     0     0 -577.23838    0 2705 -630.85569 -577.23838  8.50%     - 23859s
     0     0 -577.24290    0 2678 -630.85569 -577.24290  8.50%     - 23867s
     0     0 -577.24705    0 2699 -630.85569 -577.24705  8.50%     - 23873s
     0     0 -577.31238    0 2702 -630.85569 -577.31238  8.49%     - 23885s
     0     0 -577.31787    0 2705 -630.85569 -577.31787  8.49%     - 23894s
     0     0 -577.31787    0 2706 -630.85569 -577.31787  8.49%     - 23898s
     0     0 -578.29971    0 2684 -630.85569 -578.29971  8.33%     - 24093s
H    0     0                    -629.5186676 -578.29971  8.14%     - 24123s
     0     0 -578.55766    0 2703 -629.51867 -578.55766  8.10%     - 24260s
     0     0 -578.80006    0 2727 -629.51867 -578.80006  8.06%     - 24339s
     0     0 -578.91734    0 2718 -629.51867 -578.91734  8.04%     - 24361s
     0     0 -578.96589    0 2668 -629.51867 -578.96589  8.03%     - 24374s
     0     0 -578.99290    0 2697 -629.51867 -578.99290  8.03%     - 24390s
     0     0 -578.99290    0 2701 -629.51867 -578.99290  8.03%     - 24394s
     0     0 -580.19940    0 2599 -629.51867 -580.19940  7.83%     - 24730s
H    0     0                    -628.1816443 -580.19940  7.64%     - 24760s
     0     0 -580.30294    0 2555 -628.18164 -580.30294  7.62%     - 24850s
     0     0 -580.48495    0 2557 -628.18164 -580.48495  7.59%     - 24970s
     0     0 -580.51139    0 2560 -628.18164 -580.51139  7.59%     - 25025s
     0     0 -580.52408    0 2565 -628.18164 -580.52408  7.59%     - 25060s
     0     0 -580.52725    0 2567 -628.18164 -580.52725  7.59%     - 25076s
     0     0 -581.97822    0 1737 -628.18164 -581.97822  7.36%     - 27384s
     0     0 -582.42157    0 2491 -628.18164 -582.42157  7.28%     - 27704s
     0     0 -582.42935    0 2499 -628.18164 -582.42935  7.28%     - 27737s
     0     0 -582.42946    0 2501 -628.18164 -582.42946  7.28%     - 27747s
     0     0 -584.29571    0 2525 -628.18164 -584.29571  6.99%     - 43538s
     0     0 -584.33125    0 2497 -628.18164 -584.33125  6.98%     - 43578s
     0     0 -584.33166    0 2488 -628.18164 -584.33166  6.98%     - 43585s
     0     0 -584.61151    0 2507 -628.18164 -584.61151  6.94%     - 43728s
     0     0 -584.68724    0 2516 -628.18164 -584.68724  6.92%     - 43873s
     0     0 -584.69476    0 2560 -628.18164 -584.69476  6.92%     - 43926s
     0     0 -584.69737    0 2509 -628.18164 -584.69737  6.92%     - 43948s
     0     0 -585.08479    0 2489 -628.18164 -585.08479  6.86%     - 44922s
     0     0 -585.46004    0 2558 -628.18164 -585.46004  6.80%     - 45173s
     0     0 -585.47060    0 2553 -628.18164 -585.47060  6.80%     - 45187s
     0     0 -585.47397    0 2554 -628.18164 -585.47397  6.80%     - 45195s
     0     0 -585.99031    0 2513 -628.18164 -585.99031  6.72%     - 45513s
H    0     0                    -626.8446209 -585.99031  6.52%     - 45546s
     0     0 -586.13607    0 2519 -626.84462 -586.13607  6.49%     - 45756s
     0     0 -586.46630    0 2532 -626.84462 -586.46630  6.44%     - 46005s
     0     0 -586.49934    0 2536 -626.84462 -586.49934  6.44%     - 46021s
     0     0 -586.51520    0 2538 -626.84462 -586.51520  6.43%     - 46031s
     0     0 -586.51987    0 2541 -626.84462 -586.51987  6.43%     - 46039s
     0     0 -586.51987    0 2539 -626.84462 -586.51987  6.43%     - 46044s
     0     0 -587.27048    0 2520 -626.84462 -587.27048  6.31%     - 46767s
     0     0 -587.66118    0 2534 -626.84462 -587.66118  6.25%     - 46872s
     0     0 -587.70867    0 2545 -626.84462 -587.70867  6.24%     - 46888s
     0     0 -587.72123    0 2545 -626.84462 -587.72123  6.24%     - 46896s
     0     0 -587.72134    0 2545 -626.84462 -587.72134  6.24%     - 46902s
     0     0 -589.08744    0 2519 -626.84462 -589.08744  6.02%     - 47666s
     0     0 -589.39040    0 2521 -626.84462 -589.39040  5.98%     - 47820s
     0     0 -589.55299    0 2519 -626.84462 -589.55299  5.95%     - 47852s
     0     0 -589.65344    0 2512 -626.84462 -589.65344  5.93%     - 47888s
     0     0 -589.66916    0 2514 -626.84462 -589.66916  5.93%     - 47899s
     0     0 -589.68509    0 2514 -626.84462 -589.68509  5.93%     - 47915s
     0     0 -589.68509    0 2519 -626.84462 -589.68509  5.93%     - 47920s
     0     0 -590.83036    0 2515 -626.84462 -590.83036  5.75%     - 50233s
     0     0 -590.98685    0 2506 -626.84462 -590.98685  5.72%     - 50345s
     0     0 -591.01144    0 2511 -626.84462 -591.01144  5.72%     - 50367s
     0     0 -591.02044    0 2511 -626.84462 -591.02044  5.72%     - 50379s
     0     0 -591.02143    0 2515 -626.84462 -591.02143  5.71%     - 50386s
     0     0 -591.85029    0 2515 -626.84462 -591.85029  5.58%     - 50740s
     0     0 -591.96963    0 2513 -626.84462 -591.96963  5.56%     - 50805s
     0     0 -592.04862    0 2530 -626.84462 -592.04862  5.55%     - 50845s
     0     0 -592.05578    0 2535 -626.84462 -592.05578  5.55%     - 50853s
     0     0 -592.05969    0 2537 -626.84462 -592.05969  5.55%     - 50862s
     0     0 -592.99071    0 2518 -626.84462 -592.99071  5.40%     - 51401s
     0     0 -593.01874    0 2525 -626.84462 -593.01874  5.40%     - 51445s
     0     0 -593.04935    0 2528 -626.84462 -593.04935  5.39%     - 51459s
     0     0 -593.06317    0 2527 -626.84462 -593.06317  5.39%     - 51468s
     0     0 -593.06330    0 2529 -626.84462 -593.06330  5.39%     - 51473s
     0     0 -593.92354    0 2518 -626.84462 -593.92354  5.25%     - 51948s
     0     0 -594.04815    0 2529 -626.84462 -594.04815  5.23%     - 52037s
     0     0 -594.11557    0 2523 -626.84462 -594.11557  5.22%     - 52078s
     0     0 -594.11567    0 2526 -626.84462 -594.11567  5.22%     - 52087s
     0     0 -594.85491    0 2517 -626.84462 -594.85491  5.10%     - 59026s
     0     0 -595.00956    0 2524 -626.84462 -595.00956  5.08%     - 59198s
     0     0 -595.03551    0 2517 -626.84462 -595.03551  5.07%     - 59215s
     0     0 -595.04177    0 2521 -626.84462 -595.04177  5.07%     - 59227s
     0     0 -595.04225    0 2526 -626.84462 -595.04225  5.07%     - 59234s
     0     0 -595.14148    0 2519 -626.84462 -595.14148  5.06%     - 59265s
H    0     0                    -625.5075976 -595.14148  4.85%     - 59292s
     0     0 -595.34336    0 2524 -625.50760 -595.34336  4.82%     - 59580s
     0     0 -595.35037    0 2529 -625.50760 -595.35037  4.82%     - 59593s
     0     0 -595.35037    0 2525 -625.50760 -595.35037  4.82%     - 59599s
     0     0 -595.44665    0 2527 -625.50760 -595.44665  4.81%     - 59677s
     0     0 -595.54774    0 2525 -625.50760 -595.54774  4.79%     - 60276s
     0     0 -595.58433    0 2525 -625.50760 -595.58433  4.78%     - 60358s
     0     0 -595.59806    0 2528 -625.50760 -595.59806  4.78%     - 60374s
     0     0 -595.61171    0 2528 -625.50760 -595.61171  4.78%     - 60391s
     0     0 -595.61177    0 2526 -625.50760 -595.61177  4.78%     - 60397s
     0     0 -596.18925    0 2517 -625.50760 -596.18925  4.69%     - 62736s
H    0     0                    -621.9147015 -596.18925  4.14%     - 62760s
     0     0 -596.42648    0 2529 -621.91470 -596.42648  4.10%     - 64159s
     0     0 -596.47489    0 2533 -621.91470 -596.47489  4.09%     - 64284s
     0     0 -596.47976    0 2529 -621.91470 -596.47976  4.09%     - 64297s
     0     0 -597.15464    0 2517 -621.91470 -597.15464  3.98%     - 66579s
H    0     0                    -617.9036316 -597.15464  3.36%     - 66604s
     0     0 -597.41568    0 2522 -617.90363 -597.41568  3.32%     - 68416s
     0     0 -597.44270    0 2522 -617.90363 -597.44270  3.31%     - 68449s
     0     0 -597.46990    0 2524 -617.90363 -597.46990  3.31%     - 68501s
     0     0 -597.46990    0 2524 -617.90363 -597.46990  3.31%     - 68507s
     0     0 -597.98915    0 2518 -617.90363 -597.98915  3.22%     - 70627s
     0     0 -598.25025    0 2514 -617.90363 -598.25025  3.18%     - 71531s
     0     0 -598.25680    0 2511 -617.90363 -598.25680  3.18%     - 71545s
     0     0 -598.25840    0 2512 -617.90363 -598.25840  3.18%     - 71550s
     0     0 -598.71495    0 2503 -617.90363 -598.71495  3.11%     - 73824s
     0     0 -598.74451    0 2504 -617.90363 -598.74451  3.10%     - 73883s
     0     0 -598.76214    0 2510 -617.90363 -598.76214  3.10%     - 73907s
     0     0 -598.77705    0 2510 -617.90363 -598.77705  3.10%     - 73955s
     0     0 -598.80769    0 2515 -617.90363 -598.80769  3.09%     - 73966s
     0     0 -598.80769    0 2519 -617.90363 -598.80769  3.09%     - 73970s
     0     0 -599.45901    0 2501 -617.90363 -599.45901  2.99%     - 75172s
     0     0 -599.81519    0 2507 -617.90363 -599.81519  2.93%     - 75684s
     0     0 -599.87505    0 2500 -617.90363 -599.87505  2.92%     - 75770s
     0     0 -599.87707    0 2509 -617.90363 -599.87707  2.92%     - 75780s
     0     0 -600.81826    0 2489 -617.90363 -600.81826  2.77%     - 81525s
     0     0 -600.88397    0 2492 -617.90363 -600.88397  2.75%     - 81698s
     0     0 -600.98072    0 2495 -617.90363 -600.98072  2.74%     - 81951s
     0     0 -600.98856    0 2503 -617.90363 -600.98856  2.74%     - 81958s
     0     0 -600.99944    0 2504 -617.90363 -600.99944  2.74%     - 81964s
     0     0 -600.99946    0 2507 -617.90363 -600.99946  2.74%     - 81966s
     0     0 -601.02449    0 2505 -617.90363 -601.02449  2.73%     - 81981s
     0     0 -601.04631    0 2508 -617.90363 -601.04631  2.73%     - 81993s
     0     0 -601.04695    0 2509 -617.90363 -601.04695  2.73%     - 81996s
     0     0 -601.05793    0 2511 -617.90363 -601.05793  2.73%     - 82009s
     0     0 -601.05793    0 2512 -617.90363 -601.05793  2.73%     - 82042s
     0     0 -601.11988    0 2487 -617.90363 -601.11988  2.72%     - 82496s
     0     0 -601.15048    0 2501 -617.90363 -601.15048  2.71%     - 82525s
     0     0 -601.15506    0 2509 -617.90363 -601.15506  2.71%     - 82528s
     0     0 -601.33421    0 2504 -617.90363 -601.33421  2.68%     - 82556s
     0     0 -601.36379    0 2503 -617.90363 -601.36379  2.68%     - 82586s
     0     0 -601.36542    0 2508 -617.90363 -601.36542  2.68%     - 82590s
     0     0 -601.37572    0 2505 -617.90363 -601.37572  2.67%     - 82604s
     0     0 -601.40678    0 2509 -617.90363 -601.40678  2.67%     - 82634s
     0     0 -601.40679    0 2506 -617.90363 -601.40679  2.67%     - 82636s
     0     0 -601.42987    0 2498 -617.90363 -601.42987  2.67%     - 82743s
     0     0 -601.42987    0 2497 -617.90363 -601.42987  2.67%     - 82751s
     0     2 -601.43087    0 2497 -617.90363 -601.43087  2.67%     - 83144s
     1     3 -602.05372    1 2356 -617.90363 -601.43087  2.67% 10072 83182s
     2     4 -603.52194    2 1742 -617.90363 -601.43087  2.67%  6912 83201s
     3     5 -603.57880    3 1735 -617.90363 -601.43087  2.67%  4748 83205s
     4     6 -604.21904    4  287 -617.90363 -601.43087  2.67%  3802 83216s
     5     7 -604.41388    5  443 -617.90363 -601.43087  2.67%  3152 83220s
     6     8 -605.43224    5  174 -617.90363 -601.43087  2.67%  3369 83239s
H    8     8                    -608.4962545 -601.43087  1.16%  2528 83259s
     8    10 -606.10075    7  211 -608.49625 -601.43087  1.16%  2614 83267s
     9     9     cutoff    7      -608.49625 -601.43087  1.16%  9730 84306s
    10    10 -607.82774    8  206 -608.49625 -601.43087  1.16% 11800 84673s
    11     9     cutoff    9      -608.49625 -601.43087  1.16% 14154 85228s

Cutting planes:
  Gomory: 1
  Zero half: 268

Explored 12 nodes (2743071 simplex iterations) in 86400.11 seconds
Thread count was 1 (of 80 available processors)

Solution count 10: -608.496 -617.904 -621.915 ... -642.889

Time limit reached
Best objective -6.084962545045e+02, best bound -6.014308712867e+02, gap 1.1611%
